50
3 6 15 28 159 269 291 323 397 412 456 477 478 487 520 546 635 640 661 669 776 793 808 820 824 883 896 939 950 1027 1070 1113 1146 1272 1304 1314 1336 1372 1426 1522 1531 1561 1570 1653 1665 1696 1721 1723 1812 1887
0.40,90
0.45,89
0.46,88
0.49,87
0.59,86
0.70,85
0.71,84
0.72,83
0.74,82
0.76,81
0.77,80
0.78,79
0.78,78
0.81,77
0.82,76
0.82,75
0.83,74
0.84,73
0.86,72
0.87,71
0.88,70
0.91,69
1.11,68
1.12,67
1.13,66
1.15,65
1.16,64
1.23,63
1.24,62
1.24,61
1.25,60
1.26,59
1.27,58
1.27,57
1.28,56
1.30,55
1.30,54
1.31,53
1.31,52
1.33,51
1.33,50
